1
26850.00 24950.00 22850.00  45800.00
10
297 752 280  134 205
256 483 339  225 114
666 745 711  89 241
511 564 342  210 281
248 373 203  86 147
297 269 337  209 232
128 588 281  251 86
725 536 272  166 86
516 518 607  142 5
124 133 636  202 227
